Maximize
x0_5 + x0_7 + x0_6 + x0_8 + x0_3 + x1_6 + x1_5 + x1_0 + x1_4 + x1_7 + x2_4 + x2_0 + x2_7 + x2_2 + x2_8 + x3_6 + x3_5 + x3_7 + x3_0 + x3_8 + x4_1 + x4_6 + x4_7 + x4_5 + x4_0 + x5_0 + x5_7 + x5_4 + x5_2 + x5_8 + x6_5 + x6_7 + x6_6 + x6_2 + x6_8 + x7_7 + x7_0 + x7_4 + x7_2 + x7_8 + x8_5 + x8_7 + x8_6 + x8_2 + x8_8 + x9_2 + x9_6 + x9_5 + x9_8 + x9_3 + x10_6 + x10_4 + x10_0 + x10_8 + x10_3
Subject To
constr_capacite_0: x1_0 + x2_0 + x3_0 + x4_0 + x5_0 + x7_0 + x10_0 <= 2
constr_capacite_1: x4_1 <= 1
constr_capacite_2: x2_2 + x5_2 + x6_2 + x7_2 + x8_2 + x9_2 <= 1
constr_capacite_3: x0_3 + x9_3 + x10_3 <= 1
constr_capacite_4: x1_4 + x2_4 + x5_4 + x7_4 + x10_4 <= 1
constr_capacite_5: x0_5 + x1_5 + x3_5 + x4_5 + x6_5 + x8_5 + x9_5 <= 1
constr_capacite_6: x0_6 + x1_6 + x3_6 + x4_6 + x6_6 + x8_6 + x9_6 + x10_6 <= 1
constr_capacite_7: x0_7 + x1_7 + x2_7 + x3_7 + x4_7 + x5_7 + x6_7 + x7_7 + x8_7 <= 1
constr_capacite_8: x0_8 + x2_8 + x3_8 + x5_8 + x6_8 + x7_8 + x8_8 + x9_8 + x10_8 <= 2
constr_kpremiers_0: x0_5 + x0_7 + x0_6 + x0_8 + x0_3 <= 1
constr_kpremiers_1: x1_6 + x1_5 + x1_0 + x1_4 + x1_7 <= 1
constr_kpremiers_2: x2_4 + x2_0 + x2_7 + x2_2 + x2_8 <= 1
constr_kpremiers_3: x3_6 + x3_5 + x3_7 + x3_0 + x3_8 <= 1
constr_kpremiers_4: x4_1 + x4_6 + x4_7 + x4_5 + x4_0 <= 1
constr_kpremiers_5: x5_0 + x5_7 + x5_4 + x5_2 + x5_8 <= 1
constr_kpremiers_6: x6_5 + x6_7 + x6_6 + x6_2 + x6_8 <= 1
constr_kpremiers_7: x7_7 + x7_0 + x7_4 + x7_2 + x7_8 <= 1
constr_kpremiers_8: x8_5 + x8_7 + x8_6 + x8_2 + x8_8 <= 1
constr_kpremiers_9: x9_2 + x9_6 + x9_5 + x9_8 + x9_3 <= 1
constr_kpremiers_10: x10_6 + x10_4 + x10_0 + x10_8 + x10_3 <= 1
Binary
x0_5 x0_7 x0_6 x0_8 x0_3 x1_6 x1_5 x1_0 x1_4 x1_7 x2_4 x2_0 x2_7 x2_2 x2_8 x3_6 x3_5 x3_7 x3_0 x3_8 x4_1 x4_6 x4_7 x4_5 x4_0 x5_0 x5_7 x5_4 x5_2 x5_8 x6_5 x6_7 x6_6 x6_2 x6_8 x7_7 x7_0 x7_4 x7_2 x7_8 x8_5 x8_7 x8_6 x8_2 x8_8 x9_2 x9_6 x9_5 x9_8 x9_3 x10_6 x10_4 x10_0 x10_8 x10_3 
End