Maximize
6 x0_5 + 5 x0_7 + 6 x0_6 + 8 x0_8 + 8 x0_3 + 17 x0_2 + 11 x1_6 + 5 x1_5 + 7 x1_0 + 6 x1_4 + 6 x1_7 + 17 x1_2 + 7 x2_4 + 2 x2_0 + 5 x2_7 + 3 x2_2 + 8 x2_8 + 3 x2_3 + 11 x3_6 + 7 x3_5 + 10 x3_7 + 8 x3_0 + 12 x3_8 + 15 x3_4 + 11 x4_1 + 15 x4_6 + 10 x4_7 + 7 x4_5 + 9 x4_0 + 12 x4_2 + 16 x5_0 + 11 x5_7 + 13 x5_4 + 11 x5_2 + 12 x5_8 + 6 x5_3 + 4 x6_5 + 2 x6_7 + 10 x6_6 + 6 x6_2 + 5 x6_8 + 13 x6_3 + 17 x7_7 + 12 x7_0 + 11 x7_4 + 13 x7_2 + 10 x7_8 + 4 x7_3 + 3 x8_5 + 3 x8_7 + 6 x8_6 + 4 x8_2 + 3 x8_8 + 8 x8_3 + 9 x9_2 + 11 x9_6 + 17 x9_5 + 13 x9_8 + 4 x9_3 + 8 x9_1 + 9 x10_6 + 6 x10_4 + 3 x10_0 + 6 x10_8 + 17 x10_3 + 3 x10_1
Subject To
constr_capacite_0: x1_0 + x2_0 + x3_0 + x4_0 + x5_0 + x7_0 + x10_0 <= 2
constr_capacite_1: x4_1 + x9_1 + x10_1 <= 1
constr_capacite_2: x0_2 + x1_2 + x2_2 + x4_2 + x5_2 + x6_2 + x7_2 + x8_2 + x9_2 <= 1
constr_capacite_3: x0_3 + x2_3 + x5_3 + x6_3 + x7_3 + x8_3 + x9_3 + x10_3 <= 1
constr_capacite_4: x1_4 + x2_4 + x3_4 + x5_4 + x7_4 + x10_4 <= 1
constr_capacite_5: x0_5 + x1_5 + x3_5 + x4_5 + x6_5 + x8_5 + x9_5 <= 1
constr_capacite_6: x0_6 + x1_6 + x3_6 + x4_6 + x6_6 + x8_6 + x9_6 + x10_6 <= 1
constr_capacite_7: x0_7 + x1_7 + x2_7 + x3_7 + x4_7 + x5_7 + x6_7 + x7_7 + x8_7 <= 1
constr_capacite_8: x0_8 + x2_8 + x3_8 + x5_8 + x6_8 + x7_8 + x8_8 + x9_8 + x10_8 <= 2
constr_kpremiers_0: x0_5 + x0_7 + x0_6 + x0_8 + x0_3 + x0_2 <= 1
constr_kpremiers_1: x1_6 + x1_5 + x1_0 + x1_4 + x1_7 + x1_2 <= 1
constr_kpremiers_2: x2_4 + x2_0 + x2_7 + x2_2 + x2_8 + x2_3 <= 1
constr_kpremiers_3: x3_6 + x3_5 + x3_7 + x3_0 + x3_8 + x3_4 <= 1
constr_kpremiers_4: x4_1 + x4_6 + x4_7 + x4_5 + x4_0 + x4_2 <= 1
constr_kpremiers_5: x5_0 + x5_7 + x5_4 + x5_2 + x5_8 + x5_3 <= 1
constr_kpremiers_6: x6_5 + x6_7 + x6_6 + x6_2 + x6_8 + x6_3 <= 1
constr_kpremiers_7: x7_7 + x7_0 + x7_4 + x7_2 + x7_8 + x7_3 <= 1
constr_kpremiers_8: x8_5 + x8_7 + x8_6 + x8_2 + x8_8 + x8_3 <= 1
constr_kpremiers_9: x9_2 + x9_6 + x9_5 + x9_8 + x9_3 + x9_1 <= 1
constr_kpremiers_10: x10_6 + x10_4 + x10_0 + x10_8 + x10_3 + x10_1 <= 1
Binary
x0_5 x0_7 x0_6 x0_8 x0_3 x0_2 x1_6 x1_5 x1_0 x1_4 x1_7 x1_2 x2_4 x2_0 x2_7 x2_2 x2_8 x2_3 x3_6 x3_5 x3_7 x3_0 x3_8 x3_4 x4_1 x4_6 x4_7 x4_5 x4_0 x4_2 x5_0 x5_7 x5_4 x5_2 x5_8 x5_3 x6_5 x6_7 x6_6 x6_2 x6_8 x6_3 x7_7 x7_0 x7_4 x7_2 x7_8 x7_3 x8_5 x8_7 x8_6 x8_2 x8_8 x8_3 x9_2 x9_6 x9_5 x9_8 x9_3 x9_1 x10_6 x10_4 x10_0 x10_8 x10_3 x10_1 
End